<number of tasks>
20


<number of equipment>
5


<cycle time>
1000


<investment costs>
1,17779
2,17329
3,26549
4,21244
5,20280


<task times>
1,241,-1,153,-1,225
2,-1,-1,132,227,-1
3,183,228,114,-1,-1
4,292,298,174,-1,-1
5,263,-1,104,-1,199
6,292,-1,241,-1,244
7,-1,-1,107,210,-1
8,189,277,118,-1,-1
9,224,-1,104,-1,160
10,257,284,170,-1,-1
11,343,297,135,-1,-1
12,143,-1,63,-1,153
13,261,-1,118,-1,219
14,283,288,107,-1,-1
15,-1,-1,137,251,-1
16,165,-1,73,-1,200
17,280,294,116,-1,-1
18,189,241,121,-1,-1
19,288,351,231,-1,-1
20,313,478,173,-1,-1


<precedence relations>
1,7
2,8
4,10
5,9
5,11
5,12
7,13
8,14
13,15
14,16
14,17
15,19
16,18
17,20


<task types>
1,2
2,1
3,3
4,3
5,2
6,2
7,1
8,3
9,2
10,3
11,3
12,2
13,2
14,3
15,1
16,2
17,3
18,3
19,3
20,3


<line depot>
1,1
2,1
3,2
4,0
5,0


<processing costs>
1,14400
2,7200
3,21600
4,7200
5,7200


<saving costs>
1,1777
2,1732
3,2654
4,2124
5,2028


<end>
